n_res = 4;
rc = [ 18, 32, 18, 10 ];
n_tasks = 30;
d = [ 6, 2, 8, 2, 6, 4, 5, 3, 10, 2, 7, 4, 3, 9, 3, 6, 1, 3, 6, 1, 10, 3, 6, 5, 10, 6, 8, 10, 8, 10 ];
rr = [| 18, 18, 18, 18, 18, 18, 18, 18, 18, 18, 18, 18, 18, 18, 18, 18, 18, 18, 18, 18, 18, 18, 18, 18, 18, 18, 18, 18, 18, 18
      | 32, 32, 32, 32, 32, 32, 32, 32, 32, 32, 32, 32, 32, 32, 32, 32, 32, 32, 32, 32, 32, 32, 32, 32, 32, 32, 32, 32, 32, 32
      | 18, 18, 18, 18, 18, 18, 18, 18, 18, 18, 18, 18, 18, 18, 18, 18, 18, 18, 18, 18, 18, 18, 18, 18, 18, 18, 18, 18, 18, 18
      | 10, 10, 10, 10, 10, 10, 10, 10, 10, 10, 10, 10, 10, 10, 10, 10, 10, 10, 10, 10, 10, 10, 10, 10, 10, 10, 10, 10, 10, 10|];
suc = [ { 5, 27 },
       { 16 },
       { 4, 7, 8 },
       { 10, 20 },
       { 6, 14 },
       { 9, 19 },
       { 11, 18 },
       { 24, 29 },
       { 15, 17 },
       { 13 },
       { 12 },
       { 17, 25 },
       { 17, 28 },
       { 18 },
       { 23 },
       { 25 },
       { 29 },
       { 22 },
       { 22, 24 },
       { 21, 22 },
       { 24, 28 },
       { 29 },
       { 25, 26 },
       { 26 },
       { 30 },
       { 30 },
       { 28 },
       {  },
       {  },
       {  } ];
